Minimize
    r
Subject to
    x111 + x121 + x131 = 2
    x112 + x122 + x132 = 3
    x113 + x123 + x133 = 4
    x114 + x124 + x134 = 5
    x115 + x125 + x135 = 6
    x116 + x126 + x136 = 7
    x117 + x127 + x137 = 8
    x211 + x221 + x231 = 3
    x212 + x222 + x232 = 4
    x213 + x223 + x233 = 5
    x214 + x224 + x234 = 6
    x215 + x225 + x235 = 7
    x216 + x226 + x236 = 8
    x217 + x227 + x237 = 9
    x311 + x321 + x331 = 4
    x312 + x322 + x332 = 5
    x313 + x323 + x333 = 6
    x314 + x324 + x334 = 7
    x315 + x325 + x335 = 8
    x316 + x326 + x336 = 9
    x317 + x327 + x337 = 10
    x411 + x421 + x431 = 5
    x412 + x422 + x432 = 6
    x413 + x423 + x433 = 7
    x414 + x424 + x434 = 8
    x415 + x425 + x435 = 9
    x416 + x426 + x436 = 10
    x417 + x427 + x437 = 11
    x511 + x521 + x531 = 6
    x512 + x522 + x532 = 7
    x513 + x523 + x533 = 8
    x514 + x524 + x534 = 9
    x515 + x525 + x535 = 10
    x516 + x526 + x536 = 11
    x517 + x527 + x537 = 12
    x611 + x621 + x631 = 7
    x612 + x622 + x632 = 8
    x613 + x623 + x633 = 9
    x614 + x624 + x634 = 10
    x615 + x625 + x635 = 11
    x616 + x626 + x636 = 12
    x617 + x627 + x637 = 13
    x711 + x721 + x731 = 8
    x712 + x722 + x732 = 9
    x713 + x723 + x733 = 10
    x714 + x724 + x734 = 11
    x715 + x725 + x735 = 12
    x716 + x726 + x736 = 13
    x717 + x727 + x737 = 14
     
    u111 + u121 + u131 = 2
    u112 + u122 + u132 = 2
    u113 + u123 + u133 = 2
    u114 + u124 + u134 = 2
    u115 + u125 + u135 = 2
    u116 + u126 + u136 = 2
    u117 + u127 + u137 = 2
    u211 + u221 + u231 = 2
    u212 + u222 + u232 = 2
    u213 + u223 + u233 = 2
    u214 + u224 + u234 = 2
    u215 + u225 + u235 = 2
    u216 + u226 + u236 = 2
    u217 + u227 + u237 = 2
    u311 + u321 + u331 = 2
    u312 + u322 + u332 = 2
    u313 + u323 + u333 = 2
    u314 + u324 + u334 = 2
    u315 + u325 + u335 = 2
    u316 + u326 + u336 = 2
    u317 + u327 + u337 = 2
    u411 + u421 + u431 = 2
    u412 + u422 + u432 = 2
    u413 + u423 + u433 = 2
    u414 + u424 + u434 = 2
    u415 + u425 + u435 = 2
    u416 + u426 + u436 = 2
    u417 + u427 + u437 = 2
    u511 + u521 + u531 = 2
    u512 + u522 + u532 = 2
    u513 + u523 + u533 = 2
    u514 + u524 + u534 = 2
    u515 + u525 + u535 = 2
    u516 + u526 + u536 = 2
    u517 + u527 + u537 = 2
    u611 + u621 + u631 = 2
    u612 + u622 + u632 = 2
    u613 + u623 + u633 = 2
    u614 + u624 + u634 = 2
    u615 + u625 + u635 = 2
    u616 + u626 + u636 = 2
    u617 + u627 + u637 = 2
    u711 + u721 + u731 = 2
    u712 + u722 + u732 = 2
    u713 + u723 + u733 = 2
    u714 + u724 + u734 = 2
    u715 + u725 + u735 = 2
    u716 + u726 + u736 = 2
    u717 + u727 + u737 = 2
     
    x111 - 1.0 u111 = 0
    x121 - 1.0 u121 = 0
    x131 - 1.0 u131 = 0
    x112 - 1.5 u112 = 0
    x122 - 1.5 u122 = 0
    x132 - 1.5 u132 = 0
    x113 - 2.0 u113 = 0
    x123 - 2.0 u123 = 0
    x133 - 2.0 u133 = 0
    x114 - 2.5 u114 = 0
    x124 - 2.5 u124 = 0
    x134 - 2.5 u134 = 0
    x115 - 3.0 u115 = 0
    x125 - 3.0 u125 = 0
    x135 - 3.0 u135 = 0
    x116 - 3.5 u116 = 0
    x126 - 3.5 u126 = 0
    x136 - 3.5 u136 = 0
    x117 - 4.0 u117 = 0
    x127 - 4.0 u127 = 0
    x137 - 4.0 u137 = 0
    x211 - 1.5 u211 = 0
    x221 - 1.5 u221 = 0
    x231 - 1.5 u231 = 0
    x212 - 2.0 u212 = 0
    x222 - 2.0 u222 = 0
    x232 - 2.0 u232 = 0
    x213 - 2.5 u213 = 0
    x223 - 2.5 u223 = 0
    x233 - 2.5 u233 = 0
    x214 - 3.0 u214 = 0
    x224 - 3.0 u224 = 0
    x234 - 3.0 u234 = 0
    x215 - 3.5 u215 = 0
    x225 - 3.5 u225 = 0
    x235 - 3.5 u235 = 0
    x216 - 4.0 u216 = 0
    x226 - 4.0 u226 = 0
    x236 - 4.0 u236 = 0
    x217 - 4.5 u217 = 0
    x227 - 4.5 u227 = 0
    x237 - 4.5 u237 = 0
    x311 - 2.0 u311 = 0
    x321 - 2.0 u321 = 0
    x331 - 2.0 u331 = 0
    x312 - 2.5 u312 = 0
    x322 - 2.5 u322 = 0
    x332 - 2.5 u332 = 0
    x313 - 3.0 u313 = 0
    x323 - 3.0 u323 = 0
    x333 - 3.0 u333 = 0
    x314 - 3.5 u314 = 0
    x324 - 3.5 u324 = 0
    x334 - 3.5 u334 = 0
    x315 - 4.0 u315 = 0
    x325 - 4.0 u325 = 0
    x335 - 4.0 u335 = 0
    x316 - 4.5 u316 = 0
    x326 - 4.5 u326 = 0
    x336 - 4.5 u336 = 0
    x317 - 5.0 u317 = 0
    x327 - 5.0 u327 = 0
    x337 - 5.0 u337 = 0
    x411 - 2.5 u411 = 0
    x421 - 2.5 u421 = 0
    x431 - 2.5 u431 = 0
    x412 - 3.0 u412 = 0
    x422 - 3.0 u422 = 0
    x432 - 3.0 u432 = 0
    x413 - 3.5 u413 = 0
    x423 - 3.5 u423 = 0
    x433 - 3.5 u433 = 0
    x414 - 4.0 u414 = 0
    x424 - 4.0 u424 = 0
    x434 - 4.0 u434 = 0
    x415 - 4.5 u415 = 0
    x425 - 4.5 u425 = 0
    x435 - 4.5 u435 = 0
    x416 - 5.0 u416 = 0
    x426 - 5.0 u426 = 0
    x436 - 5.0 u436 = 0
    x417 - 5.5 u417 = 0
    x427 - 5.5 u427 = 0
    x437 - 5.5 u437 = 0
    x511 - 3.0 u511 = 0
    x521 - 3.0 u521 = 0
    x531 - 3.0 u531 = 0
    x512 - 3.5 u512 = 0
    x522 - 3.5 u522 = 0
    x532 - 3.5 u532 = 0
    x513 - 4.0 u513 = 0
    x523 - 4.0 u523 = 0
    x533 - 4.0 u533 = 0
    x514 - 4.5 u514 = 0
    x524 - 4.5 u524 = 0
    x534 - 4.5 u534 = 0
    x515 - 5.0 u515 = 0
    x525 - 5.0 u525 = 0
    x535 - 5.0 u535 = 0
    x516 - 5.5 u516 = 0
    x526 - 5.5 u526 = 0
    x536 - 5.5 u536 = 0
    x517 - 6.0 u517 = 0
    x527 - 6.0 u527 = 0
    x537 - 6.0 u537 = 0
    x611 - 3.5 u611 = 0
    x621 - 3.5 u621 = 0
    x631 - 3.5 u631 = 0
    x612 - 4.0 u612 = 0
    x622 - 4.0 u622 = 0
    x632 - 4.0 u632 = 0
    x613 - 4.5 u613 = 0
    x623 - 4.5 u623 = 0
    x633 - 4.5 u633 = 0
    x614 - 5.0 u614 = 0
    x624 - 5.0 u624 = 0
    x634 - 5.0 u634 = 0
    x615 - 5.5 u615 = 0
    x625 - 5.5 u625 = 0
    x635 - 5.5 u635 = 0
    x616 - 6.0 u616 = 0
    x626 - 6.0 u626 = 0
    x636 - 6.0 u636 = 0
    x617 - 6.5 u617 = 0
    x627 - 6.5 u627 = 0
    x637 - 6.5 u637 = 0
    x711 - 4.0 u711 = 0
    x721 - 4.0 u721 = 0
    x731 - 4.0 u731 = 0
    x712 - 4.5 u712 = 0
    x722 - 4.5 u722 = 0
    x732 - 4.5 u732 = 0
    x713 - 5.0 u713 = 0
    x723 - 5.0 u723 = 0
    x733 - 5.0 u733 = 0
    x714 - 5.5 u714 = 0
    x724 - 5.5 u724 = 0
    x734 - 5.5 u734 = 0
    x715 - 6.0 u715 = 0
    x725 - 6.0 u725 = 0
    x735 - 6.0 u735 = 0
    x716 - 6.5 u716 = 0
    x726 - 6.5 u726 = 0
    x736 - 6.5 u736 = 0
    x717 - 7.0 u717 = 0
    x727 - 7.0 u727 = 0
    x737 - 7.0 u737 = 0
     
    x111 + x121 + x131 = 2
    x112 + x122 + x132 = 3
    x113 + x123 + x133 = 4
    x114 + x124 + x134 = 5
    x115 + x125 + x135 = 6
    x116 + x126 + x136 = 7
    x117 + x127 + x137 = 8
    x211 + x221 + x231 = 3
    x212 + x222 + x232 = 4
    x213 + x223 + x233 = 5
    x214 + x224 + x234 = 6
    x215 + x225 + x235 = 7
    x216 + x226 + x236 = 8
    x217 + x227 + x237 = 9
    x311 + x321 + x331 = 4
    x312 + x322 + x332 = 5
    x313 + x323 + x333 = 6
    x314 + x324 + x334 = 7
    x315 + x325 + x335 = 8
    x316 + x326 + x336 = 9
    x317 + x327 + x337 = 10
    x411 + x421 + x431 = 5
    x412 + x422 + x432 = 6
    x413 + x423 + x433 = 7
    x414 + x424 + x434 = 8
    x415 + x425 + x435 = 9
    x416 + x426 + x436 = 10
    x417 + x427 + x437 = 11
    x511 + x521 + x531 = 6
    x512 + x522 + x532 = 7
    x513 + x523 + x533 = 8
    x514 + x524 + x534 = 9
    x515 + x525 + x535 = 10
    x516 + x526 + x536 = 11
    x517 + x527 + x537 = 12
    x611 + x621 + x631 = 7
    x612 + x622 + x632 = 8
    x613 + x623 + x633 = 9
    x614 + x624 + x634 = 10
    x615 + x625 + x635 = 11
    x616 + x626 + x636 = 12
    x617 + x627 + x637 = 13
    x711 + x721 + x731 = 8
    x712 + x722 + x732 = 9
    x713 + x723 + x733 = 10
    x714 + x724 + x734 = 11
    x715 + x725 + x735 = 12
    x716 + x726 + x736 = 13
    x717 + x727 + x737 = 14
     
    x111 + x112 + x113 + x114 + x115 + x116 + x117 + x211 + x212 + x213 + x214 + x215 + x216 + x217 + x311 + x312 + x313 + x314 + x315 + x316 + x317 + x411 + x412 + x413 + x414 + x415 + x416 + x417 + x511 + x512 + x513 + x514 + x515 + x516 + x517 + x611 + x612 + x613 + x614 + x615 + x616 + x617 + x711 + x712 + x713 + x714 + x715 + x716 + x717 - r <= 0
    x121 + x122 + x123 + x124 + x125 + x126 + x127 + x221 + x222 + x223 + x224 + x225 + x226 + x227 + x321 + x322 + x323 + x324 + x325 + x326 + x327 + x421 + x422 + x423 + x424 + x425 + x426 + x427 + x521 + x522 + x523 + x524 + x525 + x526 + x527 + x621 + x622 + x623 + x624 + x625 + x626 + x627 + x721 + x722 + x723 + x724 + x725 + x726 + x727 - r <= 0
    x131 + x132 + x133 + x134 + x135 + x136 + x137 + x231 + x232 + x233 + x234 + x235 + x236 + x237 + x331 + x332 + x333 + x334 + x335 + x336 + x337 + x431 + x432 + x433 + x434 + x435 + x436 + x437 + x531 + x532 + x533 + x534 + x535 + x536 + x537 + x631 + x632 + x633 + x634 + x635 + x636 + x637 + x731 + x732 + x733 + x734 + x735 + x736 + x737 - r <= 0
     
Bounds
    x111 >= 0
    x112 >= 0
    x113 >= 0
    x114 >= 0
    x115 >= 0
    x116 >= 0
    x117 >= 0
    x121 >= 0
    x122 >= 0
    x123 >= 0
    x124 >= 0
    x125 >= 0
    x126 >= 0
    x127 >= 0
    x131 >= 0
    x132 >= 0
    x133 >= 0
    x134 >= 0
    x135 >= 0
    x136 >= 0
    x137 >= 0
    x211 >= 0
    x212 >= 0
    x213 >= 0
    x214 >= 0
    x215 >= 0
    x216 >= 0
    x217 >= 0
    x221 >= 0
    x222 >= 0
    x223 >= 0
    x224 >= 0
    x225 >= 0
    x226 >= 0
    x227 >= 0
    x231 >= 0
    x232 >= 0
    x233 >= 0
    x234 >= 0
    x235 >= 0
    x236 >= 0
    x237 >= 0
    x311 >= 0
    x312 >= 0
    x313 >= 0
    x314 >= 0
    x315 >= 0
    x316 >= 0
    x317 >= 0
    x321 >= 0
    x322 >= 0
    x323 >= 0
    x324 >= 0
    x325 >= 0
    x326 >= 0
    x327 >= 0
    x331 >= 0
    x332 >= 0
    x333 >= 0
    x334 >= 0
    x335 >= 0
    x336 >= 0
    x337 >= 0
    x411 >= 0
    x412 >= 0
    x413 >= 0
    x414 >= 0
    x415 >= 0
    x416 >= 0
    x417 >= 0
    x421 >= 0
    x422 >= 0
    x423 >= 0
    x424 >= 0
    x425 >= 0
    x426 >= 0
    x427 >= 0
    x431 >= 0
    x432 >= 0
    x433 >= 0
    x434 >= 0
    x435 >= 0
    x436 >= 0
    x437 >= 0
    x511 >= 0
    x512 >= 0
    x513 >= 0
    x514 >= 0
    x515 >= 0
    x516 >= 0
    x517 >= 0
    x521 >= 0
    x522 >= 0
    x523 >= 0
    x524 >= 0
    x525 >= 0
    x526 >= 0
    x527 >= 0
    x531 >= 0
    x532 >= 0
    x533 >= 0
    x534 >= 0
    x535 >= 0
    x536 >= 0
    x537 >= 0
    x611 >= 0
    x612 >= 0
    x613 >= 0
    x614 >= 0
    x615 >= 0
    x616 >= 0
    x617 >= 0
    x621 >= 0
    x622 >= 0
    x623 >= 0
    x624 >= 0
    x625 >= 0
    x626 >= 0
    x627 >= 0
    x631 >= 0
    x632 >= 0
    x633 >= 0
    x634 >= 0
    x635 >= 0
    x636 >= 0
    x637 >= 0
    x711 >= 0
    x712 >= 0
    x713 >= 0
    x714 >= 0
    x715 >= 0
    x716 >= 0
    x717 >= 0
    x721 >= 0
    x722 >= 0
    x723 >= 0
    x724 >= 0
    x725 >= 0
    x726 >= 0
    x727 >= 0
    x731 >= 0
    x732 >= 0
    x733 >= 0
    x734 >= 0
    x735 >= 0
    x736 >= 0
    x737 >= 0
    r >= 0
Binary
    u111 u112 u113 u114 u115 u116 u117 u121 u122 u123 u124 u125 u126 u127 u131 u132 u133 u134 u135 u136 u137 u211 u212 u213 u214 u215 u216 u217 u221 u222 u223 u224 u225 u226 u227 u231 u232 u233 u234 u235 u236 u237 u311 u312 u313 u314 u315 u316 u317 u321 u322 u323 u324 u325 u326 u327 u331 u332 u333 u334 u335 u336 u337 u411 u412 u413 u414 u415 u416 u417 u421 u422 u423 u424 u425 u426 u427 u431 u432 u433 u434 u435 u436 u437 u511 u512 u513 u514 u515 u516 u517 u521 u522 u523 u524 u525 u526 u527 u531 u532 u533 u534 u535 u536 u537 u611 u612 u613 u614 u615 u616 u617 u621 u622 u623 u624 u625 u626 u627 u631 u632 u633 u634 u635 u636 u637 u711 u712 u713 u714 u715 u716 u717 u721 u722 u723 u724 u725 u726 u727 u731 u732 u733 u734 u735 u736 u737
End